W=7;
H=4;

MAX_TIME=18;
MAX_TRACKS=14;

TARGET=(4,7);

TRAINS=[(3,2,LEFT),(3,4,RIGHT)];

INIT_POS=[
(1,2,STRAIGHT_RL),
(3,2,STRAIGHT_RL),
(3,4,STRAIGHT_RL),
(4,6,STRAIGHT_RL),
(4,7,STRAIGHT_RL),
(2,2,EMPTY),
];
TUNNEL_PAIRS=[];

GATES=[];
ACTIVATIONS=[];

DSWITCHES=[];

STATIONS=[
  (1,2,1),
];
